
******************************************************************************
This program contains Ipopt, a library for large-scale nonlinear optimization.
 Ipopt is released as open source code under the Eclipse Public License (EPL).
         For more information visit http://projects.coin-or.org/Ipopt

This version of Ipopt was compiled from source code available at
    https://github.com/IDAES/Ipopt as part of the Institute for the Design of
    Advanced Energy Systems Process Systems Engineering Framework (IDAES PSE
    Framework) Copyright (c) 2018-2019. See https://github.com/IDAES/idaes-pse.

This version of Ipopt was compiled using HSL, a collection of Fortran codes
    for large-scale scientific computation.  All technical papers, sales and
    publicity material resulting from use of the HSL codes within IPOPT must
    contain the following acknowledgement:
        HSL, a collection of Fortran codes for large-scale scientific
        computation. See http://www.hsl.rl.ac.uk.
******************************************************************************

This is Ipopt version 3.13.2, running with linear solver ma27.

Number of nonzeros in equality constraint Jacobian...:      928
Number of nonzeros in inequality constraint Jacobian.:        0
Number of nonzeros in Lagrangian Hessian.............:      806

Total number of variables............................:      403
                     variables with only lower bounds:      124
                variables with lower and upper bounds:      217
                     variables with only upper bounds:        0
Total number of equality constraints.................:      402
Total number of inequality constraints...............:        0
        inequality constraints with only lower bounds:        0
   inequality constraints with lower and upper bounds:        0
        inequality constraints with only upper bounds:        0

iter    objective    inf_pr   inf_du lg(mu)  ||d||  lg(rg) alpha_du alpha_pr  ls
   0  0.0000000e+00 1.12e+00 4.44e-16  -1.0 0.00e+00    -  0.00e+00 0.00e+00   0
   1  1.0741504e+00 7.51e-01 3.08e+04  -1.0 1.57e+05    -  4.69e-01 4.01e-01h  1
   2  1.1152492e+00 7.42e-01 3.05e+04  -1.0 1.13e+05    -  5.68e-01 1.19e-02h  1
   3  3.1697110e+00 5.10e-01 2.33e+04  -1.0 1.45e+05    -  5.82e-01 3.52e-01h  1
   4  1.2183687e+01 1.00e-01 5.12e+03  -1.0 1.00e+05    -  8.04e-01 9.90e-01h  1
   5  1.3009508e+01 5.67e-03 1.08e+02  -1.0 6.49e+03    -  9.49e-01 9.90e-01h  1
   6  1.3022309e+01 7.25e-05 2.08e+02  -1.0 1.67e+02    -  9.89e-01 9.90e-01h  1
   7  1.3026535e+01 7.02e-05 2.50e+07  -1.0 2.91e+03    -  9.90e-01 3.09e-02f  6
   8  1.3028111e+01 6.97e-05 5.12e+07  -1.0 4.34e+03    -  9.91e-01 7.73e-03f  8
   9  1.3048394e+01 6.75e-05 5.63e+07  -1.0 1.39e+04    -  2.75e-01 3.09e-02f  6
iter    objective    inf_pr   inf_du lg(mu)  ||d||  lg(rg) alpha_du alpha_pr  ls
  10  1.3201037e+01 3.26e-04 8.42e+05  -1.0 3.27e+03    -  1.00e+00 9.90e-01H  1
  11  1.3317061e+01 7.78e-05 2.80e+07  -1.0 2.45e+03    -  1.00e+00 9.90e-01H  1
  12  1.3284929e+01 2.22e-05 2.80e+09  -1.0 6.76e+02    -  1.00e+00 9.90e-01h  1
  13  1.3281722e+01 3.92e-07 2.80e+11  -1.0 6.74e+01    -  1.00e+00 9.90e-01h  1
In iteration 13, 31 Slacks too small, adjusting variable bounds
  14  1.3281665e+01 3.98e-09 2.80e+13  -1.0 1.20e+00    -  1.00e+00 9.90e-01h  1
  15  1.3281664e+01 3.87e-12 1.29e-01  -1.0 1.21e-02    -  1.00e+00 1.00e+00h  1
  16  1.3281409e+01 1.73e-09 2.81e+13  -9.0 8.89e+03    -  9.84e-01 5.97e-04f 11
  17  1.3281155e+01 3.45e-09 2.85e+13  -9.0 6.73e+03    -  9.89e-01 7.89e-04f 11
  18  1.3281028e+01 3.88e-09 2.85e+13  -9.0 6.01e+03    -  9.94e-01 4.41e-04f 12
  19  1.3280964e+01 3.98e-09 2.85e+13  -9.0 5.74e+03    -  1.00e+00 2.31e-04f 13
iter    objective    inf_pr   inf_du lg(mu)  ||d||  lg(rg) alpha_du alpha_pr  ls
  20  1.3280901e+01 4.09e-09 2.85e+13  -9.0 5.61e+03    -  1.00e+00 2.36e-04f 13
  21  1.3024064e+01 3.90e-03 5.74e+11  -9.0 5.53e+03    -  1.00e+00 9.80e-01f  1
  22  1.3020942e+01 3.50e-06 2.41e-02  -9.0 5.51e+01    -  1.00e+00 1.00e+00h  1
  23  1.3020942e+01 2.25e-11 1.13e-07  -9.0 2.11e-03    -  1.00e+00 1.00e+00h  1

Number of Iterations....: 23

                                   (scaled)                 (unscaled)
Objective...............:   1.3020941949222257e+01    1.3020941949222257e+01
Dual infeasibility......:   1.1326587199118594e-07    1.1326587199118594e-07
Constraint violation....:   2.2474244687487044e-11    2.2474244687487044e-11
Complementarity.........:   2.2125031796939896e-09    2.2125031796939896e-09
Overall NLP error.......:   6.8279920613377597e-10    1.1326587199118594e-07


Number of objective function evaluations             = 126
Number of objective gradient evaluations             = 24
Number of equality constraint evaluations            = 126
Number of inequality constraint evaluations          = 0
Number of equality constraint Jacobian evaluations   = 24
Number of inequality constraint Jacobian evaluations = 0
Number of Lagrangian Hessian evaluations             = 23
Total CPU secs in IPOPT (w/o function evaluations)   =      0.052
Total CPU secs in NLP function evaluations           =      1.167

EXIT: Optimal Solution Found.
